sat
(
  (define-fun I () String
    "aabb")
  (define-fun G () String
    "")
  (define-fun O () String
    "")
  (define-fun F () String
    "")
  (define-fun L () String
    "")
  (define-fun H () String
    "")
  (define-fun P () String
    "baabbbaa")
  (define-fun N () String
    "aaaa")
)
